(set-option :produce-models true)
(set-logic QF_LRA)
(set-info :notes | Strip-packing problem.|)
(declare-fun x0 () Real)
(declare-fun y0 () Real)
(declare-fun x1 () Real)
(declare-fun y1 () Real)
(declare-fun x2 () Real)
(declare-fun y2 () Real)
(declare-fun x3 () Real)
(declare-fun y3 () Real)
(declare-fun x4 () Real)
(declare-fun y4 () Real)
(declare-fun x5 () Real)
(declare-fun y5 () Real)
(declare-fun x6 () Real)
(declare-fun y6 () Real)
(declare-fun x7 () Real)
(declare-fun y7 () Real)
(declare-fun x8 () Real)
(declare-fun y8 () Real)
(declare-fun z () Real)
(declare-fun c () Real)
(assert (and (= c z) (and (>= x0 0) 
(and (>= y0 0) 
(and (>= x1 0) 
(and (>= y1 0) 
(and (>= x2 0) 
(and (>= y2 0) 
(and (>= x3 0) 
(and (>= y3 0) 
(and (>= x4 0) 
(and (>= y4 0) 
(and (>= x5 0) 
(and (>= y5 0) 
(and (>= x6 0) 
(and (>= y6 0) 
(and (>= x7 0) 
(and (>= y7 0) 
(and (>= x8 0) 
(and (>= y8 0) 
(and (>= z 0) 
(and (>= c 0) 
(and (<= (+ x0 0.7573244644) z) 
(and (<= 0.9273548871 y0) 
(and (<= y0 1.5) 
(and (<= x0 (- 3.1200805977 0.7573244644)) 
(and (>= x0 0) 
(and (<= (+ x1 0.7899913045) z) 
(and (<= 0.742723025 y1) 
(and (<= y1 1.5) 
(and (<= x1 (- 3.1200805977 0.7899913045)) 
(and (>= x1 0) 
(and (<= (+ x2 0.4609184354) z) 
(and (<= 0.7108035564 y2) 
(and (<= y2 1.5) 
(and (<= x2 (- 3.1200805977 0.4609184354)) 
(and (>= x2 0) 
(and (<= (+ x3 0.0111887896) z) 
(and (<= 0.5384669899 y3) 
(and (<= y3 1.5) 
(and (<= x3 (- 3.1200805977 0.0111887896)) 
(and (>= x3 0) 
(and (<= (+ x4 0.6028017374) z) 
(and (<= 0.3584218462 y4) 
(and (<= y4 1.5) 
(and (<= x4 (- 3.1200805977 0.6028017374)) 
(and (>= x4 0) 
(and (<= (+ x5 0.9699630914) z) 
(and (<= 0.3463642461 y5) 
(and (<= y5 1.5) 
(and (<= x5 (- 3.1200805977 0.9699630914)) 
(and (>= x5 0) 
(and (<= (+ x6 0.8400989778) z) 
(and (<= 0.1580972685 y6) 
(and (<= y6 1.5) 
(and (<= x6 (- 3.1200805977 0.8400989778)) 
(and (>= x6 0) 
(and (<= (+ x7 0.4004452711) z) 
(and (<= 0.0825373351 y7) 
(and (<= y7 1.5) 
(and (<= x7 (- 3.1200805977 0.4004452711)) 
(and (>= x7 0) 
(and (<= (+ x8 0.0065149924) z) 
(and (<= 0.0074280058 y8) 
(and (<= y8 1.5) 
(and (<= x8 (- 3.1200805977 0.0065149924)) 
(and (>= x8 0) 
(and (<= c 3.1200805977) 
(and (or (<= (+ x0 0.7573244644) x1) (or (<= (+ x1 0.7899913045) x0) (or (>= (- y0 0.9273548871) y1) (or (>= (- y1 0.742723025) y0))))) 
(and (or (<= (+ x0 0.7573244644) x2) (or (<= (+ x2 0.4609184354) x0) (or (>= (- y0 0.9273548871) y2) (or (>= (- y2 0.7108035564) y0))))) 
(and (or (<= (+ x0 0.7573244644) x3) (or (<= (+ x3 0.0111887896) x0) (or (>= (- y0 0.9273548871) y3) (or (>= (- y3 0.5384669899) y0))))) 
(and (or (<= (+ x0 0.7573244644) x4) (or (<= (+ x4 0.6028017374) x0) (or (>= (- y0 0.9273548871) y4) (or (>= (- y4 0.3584218462) y0))))) 
(and (or (<= (+ x0 0.7573244644) x5) (or (<= (+ x5 0.9699630914) x0) (or (>= (- y0 0.9273548871) y5) (or (>= (- y5 0.3463642461) y0))))) 
(and (or (<= (+ x0 0.7573244644) x6) (or (<= (+ x6 0.8400989778) x0) (or (>= (- y0 0.9273548871) y6) (or (>= (- y6 0.1580972685) y0))))) 
(and (or (<= (+ x0 0.7573244644) x7) (or (<= (+ x7 0.4004452711) x0) (or (>= (- y0 0.9273548871) y7) (or (>= (- y7 0.0825373351) y0))))) 
(and (or (<= (+ x0 0.7573244644) x8) (or (<= (+ x8 0.0065149924) x0) (or (>= (- y0 0.9273548871) y8) (or (>= (- y8 0.0074280058) y0))))) 
(and (or (<= (+ x1 0.7899913045) x2) (or (<= (+ x2 0.4609184354) x1) (or (>= (- y1 0.742723025) y2) (or (>= (- y2 0.7108035564) y1))))) 
(and (or (<= (+ x1 0.7899913045) x3) (or (<= (+ x3 0.0111887896) x1) (or (>= (- y1 0.742723025) y3) (or (>= (- y3 0.5384669899) y1))))) 
(and (or (<= (+ x1 0.7899913045) x4) (or (<= (+ x4 0.6028017374) x1) (or (>= (- y1 0.742723025) y4) (or (>= (- y4 0.3584218462) y1))))) 
(and (or (<= (+ x1 0.7899913045) x5) (or (<= (+ x5 0.9699630914) x1) (or (>= (- y1 0.742723025) y5) (or (>= (- y5 0.3463642461) y1))))) 
(and (or (<= (+ x1 0.7899913045) x6) (or (<= (+ x6 0.8400989778) x1) (or (>= (- y1 0.742723025) y6) (or (>= (- y6 0.1580972685) y1))))) 
(and (or (<= (+ x1 0.7899913045) x7) (or (<= (+ x7 0.4004452711) x1) (or (>= (- y1 0.742723025) y7) (or (>= (- y7 0.0825373351) y1))))) 
(and (or (<= (+ x1 0.7899913045) x8) (or (<= (+ x8 0.0065149924) x1) (or (>= (- y1 0.742723025) y8) (or (>= (- y8 0.0074280058) y1))))) 
(and (or (<= (+ x2 0.4609184354) x3) (or (<= (+ x3 0.0111887896) x2) (or (>= (- y2 0.7108035564) y3) (or (>= (- y3 0.5384669899) y2))))) 
(and (or (<= (+ x2 0.4609184354) x4) (or (<= (+ x4 0.6028017374) x2) (or (>= (- y2 0.7108035564) y4) (or (>= (- y4 0.3584218462) y2))))) 
(and (or (<= (+ x2 0.4609184354) x5) (or (<= (+ x5 0.9699630914) x2) (or (>= (- y2 0.7108035564) y5) (or (>= (- y5 0.3463642461) y2))))) 
(and (or (<= (+ x2 0.4609184354) x6) (or (<= (+ x6 0.8400989778) x2) (or (>= (- y2 0.7108035564) y6) (or (>= (- y6 0.1580972685) y2))))) 
(and (or (<= (+ x2 0.4609184354) x7) (or (<= (+ x7 0.4004452711) x2) (or (>= (- y2 0.7108035564) y7) (or (>= (- y7 0.0825373351) y2))))) 
(and (or (<= (+ x2 0.4609184354) x8) (or (<= (+ x8 0.0065149924) x2) (or (>= (- y2 0.7108035564) y8) (or (>= (- y8 0.0074280058) y2))))) 
(and (or (<= (+ x3 0.0111887896) x4) (or (<= (+ x4 0.6028017374) x3) (or (>= (- y3 0.5384669899) y4) (or (>= (- y4 0.3584218462) y3))))) 
(and (or (<= (+ x3 0.0111887896) x5) (or (<= (+ x5 0.9699630914) x3) (or (>= (- y3 0.5384669899) y5) (or (>= (- y5 0.3463642461) y3))))) 
(and (or (<= (+ x3 0.0111887896) x6) (or (<= (+ x6 0.8400989778) x3) (or (>= (- y3 0.5384669899) y6) (or (>= (- y6 0.1580972685) y3))))) 
(and (or (<= (+ x3 0.0111887896) x7) (or (<= (+ x7 0.4004452711) x3) (or (>= (- y3 0.5384669899) y7) (or (>= (- y7 0.0825373351) y3))))) 
(and (or (<= (+ x3 0.0111887896) x8) (or (<= (+ x8 0.0065149924) x3) (or (>= (- y3 0.5384669899) y8) (or (>= (- y8 0.0074280058) y3))))) 
(and (or (<= (+ x4 0.6028017374) x5) (or (<= (+ x5 0.9699630914) x4) (or (>= (- y4 0.3584218462) y5) (or (>= (- y5 0.3463642461) y4))))) 
(and (or (<= (+ x4 0.6028017374) x6) (or (<= (+ x6 0.8400989778) x4) (or (>= (- y4 0.3584218462) y6) (or (>= (- y6 0.1580972685) y4))))) 
(and (or (<= (+ x4 0.6028017374) x7) (or (<= (+ x7 0.4004452711) x4) (or (>= (- y4 0.3584218462) y7) (or (>= (- y7 0.0825373351) y4))))) 
(and (or (<= (+ x4 0.6028017374) x8) (or (<= (+ x8 0.0065149924) x4) (or (>= (- y4 0.3584218462) y8) (or (>= (- y8 0.0074280058) y4))))) 
(and (or (<= (+ x5 0.9699630914) x6) (or (<= (+ x6 0.8400989778) x5) (or (>= (- y5 0.3463642461) y6) (or (>= (- y6 0.1580972685) y5))))) 
(and (or (<= (+ x5 0.9699630914) x7) (or (<= (+ x7 0.4004452711) x5) (or (>= (- y5 0.3463642461) y7) (or (>= (- y7 0.0825373351) y5))))) 
(and (or (<= (+ x5 0.9699630914) x8) (or (<= (+ x8 0.0065149924) x5) (or (>= (- y5 0.3463642461) y8) (or (>= (- y8 0.0074280058) y5))))) 
(and (or (<= (+ x6 0.8400989778) x7) (or (<= (+ x7 0.4004452711) x6) (or (>= (- y6 0.1580972685) y7) (or (>= (- y7 0.0825373351) y6))))) 
(and (or (<= (+ x6 0.8400989778) x8) (or (<= (+ x8 0.0065149924) x6) (or (>= (- y6 0.1580972685) y8) (or (>= (- y8 0.0074280058) y6))))) 
(and (or (<= (+ x7 0.4004452711) x8) (or (<= (+ x8 0.0065149924) x7) (or (>= (- y7 0.0825373351) y8) (or (>= (- y8 0.0074280058) y7))))) ))))))))))))))))))))))))))))))))))))))))))))))))))))))))))))))))))))))))))))))))))))))))))))))))))))))))
(minimize c)
(check-sat)
(get-objectives)
(exit)
